8
0 349 0
312 329 10
64 69 6
254 267 4
3 13 2
93 109 9
180 194 4
166 178 6
0 25 87 64 0 38 56 4
17 0 79 62 95 43 0 49
16 65 0 3 31 21 24 43
98 59 41 0 62 67 68 78
38 35 59 84 0 48 16 66
24 64 53 0 30 0 63 66
29 95 89 63 36 5 0 44
86 53 64 68 39 67 9 0
0 10 54 16 32 13 16 17
71 0 10 54 4 24 65 48
60 36 0 95 38 29 84 78
84 73 72 0 93 85 25 17
68 36 91 98 0 97 62 38
49 79 80 39 8 0 72 19
70 81 25 90 77 93 0 60
23 45 42 60 45 84 37 0
Cost:  442
Route:  0  4  2  5  7  6  3  1  